p cnf 464 116
-12 -13 22 0
12 13 22 0
12 -13 -22 0
-12 13 -22 0
-22 -6 1 0
22 6 1 0
22 -6 -1 0
-22 6 -1 0
-12 27 0
-13 27 0
12 13 -27 0
-12 32 0
-6 32 0
12 6 -32 0
-13 37 0
-6 37 0
13 6 -37 0
-27 7 0
-32 7 0
-37 7 0
27 32 37 -7 0
-14 -15 23 0
14 15 23 0
14 -15 -23 0
-14 15 -23 0
-23 -7 2 0
23 7 2 0
23 -7 -2 0
-23 7 -2 0
-14 28 0
-15 28 0
14 15 -28 0
-14 33 0
-7 33 0
14 7 -33 0
-15 38 0
-7 38 0
15 7 -38 0
-28 8 0
-33 8 0
-38 8 0
28 33 38 -8 0
-16 -17 24 0
16 17 24 0
16 -17 -24 0
-16 17 -24 0
-24 -8 3 0
24 8 3 0
24 -8 -3 0
-24 8 -3 0
-16 29 0
-17 29 0
16 17 -29 0
-16 34 0
-8 34 0
16 8 -34 0
-17 39 0
-8 39 0
17 8 -39 0
-29 9 0
-34 9 0
-39 9 0
29 34 39 -9 0
-18 -19 25 0
18 19 25 0
18 -19 -25 0
-18 19 -25 0
-25 -9 4 0
25 9 4 0
25 -9 -4 0
-25 9 -4 0
-18 30 0
-19 30 0
18 19 -30 0
-18 35 0
-9 35 0
18 9 -35 0
-19 40 0
-9 40 0
19 9 -40 0
-30 10 0
-35 10 0
-40 10 0
30 35 40 -10 0
-20 -21 26 0
20 21 26 0
20 -21 -26 0
-20 21 -26 0
-26 -10 5 0
26 10 5 0
26 -10 -5 0
-26 10 -5 0
-20 31 0
-21 31 0
20 21 -31 0
-20 36 0
-10 36 0
20 10 -36 0
-21 41 0
-10 41 0
21 10 -41 0
-31 11 0
-36 11 0
-41 11 0
31 36 41 -11 0
-6 0
-12 0
14 0
-16 0
-18 0
-20 0
-13 0
15 0
17 0
19 0
-21 0
